NAME /Users/henri/Research/solvers/instances/idol-instances/robust/collection/cbp_Subramanyam_et_al_2020/CapBud_N20_7/models/uncertain_technology_matrix/
ROWS
 N  OBJ
 L  capacity
 L  c_2600
 L  c_2601
 L  c_2602
 L  c_2603
 L  c_2604
 L  c_2605
 L  c_2606
 L  c_2607
 L  c_2608
 L  c_2609
 L  c_2610
 L  c_2611
 L  c_2612
 L  c_2613
 L  c_2614
 L  c_2615
 L  c_2616
 L  c_2617
 L  c_2618
 L  c_2619
COLUMNS
    MARKER    'MARKER'                 'INTORG'
    x_0        OBJ        5.35663
    x_0        c_2600     1
    x_0        capacity   1.07133
    x_1        OBJ        9.67713
    x_1        c_2601     1
    x_1        capacity   1.93543
    x_2        OBJ        6.98202
    x_2        c_2602     1
    x_2        capacity   1.3964
    x_3        OBJ        1.4257
    x_3        c_2603     1
    x_3        capacity   0.28514
    x_4        OBJ        5.69578
    x_4        c_2604     1
    x_4        capacity   1.13916
    x_5        OBJ        8.04421
    x_5        c_2605     1
    x_5        capacity   1.60884
    x_6        OBJ        3.43661
    x_6        c_2606     1
    x_6        capacity   0.687321
    x_7        OBJ        4.28933
    x_7        c_2607     1
    x_7        capacity   0.857867
    x_8        OBJ        0.0225694
    x_8        c_2608     1
    x_8        capacity   0.00451388
    x_9        OBJ        8.6955
    x_9        c_2609     1
    x_9        capacity   1.7391
    x_10       OBJ        4.70183
    x_10       c_2610     1
    x_10       capacity   0.940366
    x_11       OBJ        2.53547
    x_11       c_2611     1
    x_11       capacity   0.507093
    x_12       OBJ        1.97607
    x_12       c_2612     1
    x_12       capacity   0.395214
    x_13       OBJ        4.27184
    x_13       c_2613     1
    x_13       capacity   0.854368
    x_14       OBJ        2.23448
    x_14       c_2614     1
    x_14       capacity   0.446896
    x_15       OBJ        8.96779
    x_15       c_2615     1
    x_15       capacity   1.79356
    x_16       OBJ        2.2674
    x_16       c_2616     1
    x_16       capacity   0.453481
    x_17       OBJ        4.02435
    x_17       c_2617     1
    x_17       capacity   0.804869
    x_18       OBJ        1.40784
    x_18       c_2618     1
    x_18       capacity   0.281567
    x_19       OBJ        1.18862
    x_19       c_2619     1
    x_19       capacity   0.237724
    y_0        OBJ        4.28531
    y_0        c_2600     1
    y_0        capacity   1.07133
    y_1        OBJ        7.7417
    y_1        c_2601     1
    y_1        capacity   1.93543
    y_2        OBJ        5.58561
    y_2        c_2602     1
    y_2        capacity   1.3964
    y_3        OBJ        1.14056
    y_3        c_2603     1
    y_3        capacity   0.28514
    y_4        OBJ        4.55663
    y_4        c_2604     1
    y_4        capacity   1.13916
    y_5        OBJ        6.43537
    y_5        c_2605     1
    y_5        capacity   1.60884
    y_6        OBJ        2.74929
    y_6        c_2606     1
    y_6        capacity   0.687321
    y_7        OBJ        3.43147
    y_7        c_2607     1
    y_7        capacity   0.857867
    y_8        OBJ        0.0180555
    y_8        c_2608     1
    y_8        capacity   0.00451388
    y_9        OBJ        6.9564
    y_9        c_2609     1
    y_9        capacity   1.7391
    y_10       OBJ        3.76147
    y_10       c_2610     1
    y_10       capacity   0.940366
    y_11       OBJ        2.02837
    y_11       c_2611     1
    y_11       capacity   0.507093
    y_12       OBJ        1.58086
    y_12       c_2612     1
    y_12       capacity   0.395214
    y_13       OBJ        3.41747
    y_13       c_2613     1
    y_13       capacity   0.854368
    y_14       OBJ        1.78758
    y_14       c_2614     1
    y_14       capacity   0.446896
    y_15       OBJ        7.17423
    y_15       c_2615     1
    y_15       capacity   1.79356
    y_16       OBJ        1.81392
    y_16       c_2616     1
    y_16       capacity   0.453481
    y_17       OBJ        3.21948
    y_17       c_2617     1
    y_17       capacity   0.804869
    y_18       OBJ        1.12627
    y_18       c_2618     1
    y_18       capacity   0.281567
    y_19       OBJ        0.950895
    y_19       c_2619     1
    y_19       capacity   0.237724
    MARKER    'MARKER'                 'INTEND'
RHS
    RHS       capacity   43.6006
    RHS       c_2600     1
    RHS       c_2601     1
    RHS       c_2602     1
    RHS       c_2603     1
    RHS       c_2604     1
    RHS       c_2605     1
    RHS       c_2606     1
    RHS       c_2607     1
    RHS       c_2608     1
    RHS       c_2609     1
    RHS       c_2610     1
    RHS       c_2611     1
    RHS       c_2612     1
    RHS       c_2613     1
    RHS       c_2614     1
    RHS       c_2615     1
    RHS       c_2616     1
    RHS       c_2617     1
    RHS       c_2618     1
    RHS       c_2619     1
BOUNDS
 LI BND       x_0        0
 UI BND       x_0        1
 LI BND       x_1        0
 UI BND       x_1        1
 LI BND       x_2        0
 UI BND       x_2        1
 LI BND       x_3        0
 UI BND       x_3        1
 LI BND       x_4        0
 UI BND       x_4        1
 LI BND       x_5        0
 UI BND       x_5        1
 LI BND       x_6        0
 UI BND       x_6        1
 LI BND       x_7        0
 UI BND       x_7        1
 LI BND       x_8        0
 UI BND       x_8        1
 LI BND       x_9        0
 UI BND       x_9        1
 LI BND       x_10       0
 UI BND       x_10       1
 LI BND       x_11       0
 UI BND       x_11       1
 LI BND       x_12       0
 UI BND       x_12       1
 LI BND       x_13       0
 UI BND       x_13       1
 LI BND       x_14       0
 UI BND       x_14       1
 LI BND       x_15       0
 UI BND       x_15       1
 LI BND       x_16       0
 UI BND       x_16       1
 LI BND       x_17       0
 UI BND       x_17       1
 LI BND       x_18       0
 UI BND       x_18       1
 LI BND       x_19       0
 UI BND       x_19       1
 LI BND       y_0        0
 UI BND       y_0        1
 LI BND       y_1        0
 UI BND       y_1        1
 LI BND       y_2        0
 UI BND       y_2        1
 LI BND       y_3        0
 UI BND       y_3        1
 LI BND       y_4        0
 UI BND       y_4        1
 LI BND       y_5        0
 UI BND       y_5        1
 LI BND       y_6        0
 UI BND       y_6        1
 LI BND       y_7        0
 UI BND       y_7        1
 LI BND       y_8        0
 UI BND       y_8        1
 LI BND       y_9        0
 UI BND       y_9        1
 LI BND       y_10       0
 UI BND       y_10       1
 LI BND       y_11       0
 UI BND       y_11       1
 LI BND       y_12       0
 UI BND       y_12       1
 LI BND       y_13       0
 UI BND       y_13       1
 LI BND       y_14       0
 UI BND       y_14       1
 LI BND       y_15       0
 UI BND       y_15       1
 LI BND       y_16       0
 UI BND       y_16       1
 LI BND       y_17       0
 UI BND       y_17       1
 LI BND       y_18       0
 UI BND       y_18       1
 LI BND       y_19       0
 UI BND       y_19       1
ENDATA
